Route #1: 92 9 86
Route #2: 57 72 36 29 43 45 2 7
Route #3: 75 93
Route #4: 52 91 50
Route #5: 32 33 53 73 95 24
Route #6: 59 60 82
Route #7: 68 90 84 66
Route #8: 79 11 85 30
Route #9: 19 97 27
Route #10: 89 98 99 62 71
Route #11: 5 12 58
Route #12: 21 56 94 80
Route #13: 20 41 22 15
Route #14: 1 70 54
Route #15: 83 51 81
Route #16: 34 64 96 48 26 47 38
Route #17: 25 65 78 42 28
Route #18: 44 67 88 40
Route #19: 4 13 74
Route #20: 31 46 35
Route #21: 14 49 6 37 87
Route #22: 39 10 18
Route #23: 23 61 100
Route #24: 63 77 3
Route #25: 8 17
Route #26: 69 16 55 76
Cost 27591.0000
Time 16.0008